TCS_Benchmarks/redos_fix/corpus3_output_distinct_730_729_16_0.txt
([ rA-Zo]+)([1-9\-n]+)
([ rA-Zo]+)( )([1-9\-n]+)